WARNING: for repeatability, setting FPU to use double precision
============================[ Problem Statistics ]=============================
|                                                                             |
|  Number of variables:        251975                                         |
|  Number of clauses:          812962                                         |
|  Parse time:                   0.20 s                                       |
|                                                                             |
c ============================[ Search Statistics ]==============================
c | Conflicts |          ORIGINAL         |          LEARNT          | Progress |
c |           |    Vars  Clauses Literals |    Limit  Clauses Lit/Cl |          |
c ===============================================================================
c Switched to VSIDS.
c Switched to LRB.
c Switched to VSIDS.
c Switched to LRB.
c Switched to VSIDS.
c Switched to LRB.
c Switched to VSIDS.
c Switched to LRB.
c Switched to VSIDS.
c Switched to LRB.
c Switched to VSIDS.
c Switched to LRB.
c Switched to VSIDS.
c Switched to LRB.
c Switched to VSIDS.
c Switched to LRB.
c Switched to VSIDS.
c Switched to LRB.
c Switched to VSIDS.
c Switched to LRB.
c Switched to VSIDS.
c Switched to LRB.
c Switched to VSIDS.
c Switched to LRB.
c Switched to VSIDS.
c Switched to LRB.
c Switched to VSIDS.
c Switched to LRB.
c Switched to VSIDS.
c Switched to LRB.
c Switched to VSIDS.
c Switched to LRB.
c Switched to VSIDS.
c Switched to LRB.
c ===============================================================================
restarts                  : 51811
conflicts                 : 8857819        (2496 /sec)
decisions                 : 431240885      (0.00 % random) (121507 /sec)
propagations              : 8045983311     (2267043 /sec)
conflict literals         : 883391256      (11.86 % deleted)

conflicts w/ DIP found    : 7241424        (81.75 % of conflicts)
conflicts w/ dangerous DIP: 0              (0.00 % of conflicts)
conflicts w/ DIP-learning : 213516         (2.41 % of conflicts)
decisions on ext vars     : 2845618        (0.66 % of decisions)
total ext vars            : 11864       
tried delete ext vars     : 1           
deleted ext vars          : 1           
max ext vars              : 11863       

Memory used               : 637.00 MB
CPU time                  : 3549.11 s
DIP computation time      : 85.5074 s (2.41 % of total time)
ER_sel time               : 14.2882 s
ER_add time               : 0.058321 s
ER_delC time              : 0 s
ER_delV time              : 0.000901 s
ER_sub time               : 17.975 s
ER_stat time              : 0 s

INDETERMINATE
